2023/11/29
gurobi is now 11.0.0
previous version was 10.0.3
solving instance knapsack 10 3 exp
Couenne 0.5.8 -- an Open-Source solver for Mixed Integer Nonlinear Optimization
Mailing list: couenne@list.coin-or.org
Instructions: http://www.coin-or.org/Couenne
couenne: 
ANALYSIS TEST: Couenne: new cutoff value 0.0000000000e+00 (0.006704 seconds)
NLP0012I 
              Num      Status      Obj             It       time                 Location
NLP0014I             1         OPT -457.28233      182 0.196379
Couenne: new cutoff value -4.5728233017e+02 (0.204761 seconds)
Loaded instance "/tmp/jl_huyDkC/model.nl"
Constraints:           31
Variables:             30 (10 integer)
Auxiliaries:           72 (0 integer)

Coin0506I Presolve 146 (-44) rows, 48 (-54) columns and 323 (-94) elements
Clp0006I 0  Obj -526.1362 Primal inf 924.82243 (113)
Clp0006I 61  Obj -526.1362 Primal inf 165.39736 (25)
Clp0006I 90  Obj -524.37185
Clp0000I Optimal - objective value -524.37185
Clp0032I Optimal objective -524.3718453 - 90 iterations time 0.002, Presolve 0.00
Clp0000I Optimal - objective value -524.37185
NLP Heuristic: NLP0014I             2         OPT -476.30764       17 0.018819
no solution.
Clp0000I Optimal - objective value -524.37185
Optimality Based BT: 12 improved bounds
Probing: 0 improved bounds
NLP Heuristic: no solution.
Cbc0031I 19 added rows had average density of 2
Cbc0013I At root node, 19 cuts changed objective from -524.37185 to -524.02621 in 20 passes
Cbc0014I Cut generator 0 (Couenne convexifier cuts) - 155 row cuts average 2.0 elements, 21 column cuts (21 active)
Cbc0010I After 0 nodes, 1 on tree, 1e+50 best solution, best possible -1.7976931e+308 (0.16 seconds)
Optimality Based BT: 8 improved bounds
Optimality Based BT: 10 improved bounds
Optimality Based BT: 10 improved bounds
Optimality Based BT: 9 improved bounds
Optimality Based BT: 10 improved bounds
Optimality Based BT: 10 improved bounds
Optimality Based BT: 10 improved bounds
Cbc0010I After 100 nodes, 46 on tree, 1e+50 best solution, best possible -520.00348 (1.74 seconds)
Cbc0010I After 200 nodes, 94 on tree, 1e+50 best solution, best possible -519.92446 (2.51 seconds)
Cbc0010I After 300 nodes, 143 on tree, 1e+50 best solution, best possible -519.92446 (2.86 seconds)
Couenne: new cutoff value -4.6492332141e+02 (3.19386 seconds)
Cbc0004I Integer solution of -464.92332 found after 9962 iterations and 345 nodes (2.99 seconds)
Optimality Based BT: 9 improved bounds
Cbc0010I After 400 nodes, 154 on tree, -464.92332 best solution, best possible -519.56553 (3.60 seconds)
Cbc0010I After 500 nodes, 190 on tree, -464.92332 best solution, best possible -509.28698 (4.05 seconds)
Cbc0010I After 600 nodes, 215 on tree, -464.92332 best solution, best possible -507.48824 (4.49 seconds)
Cbc0010I After 700 nodes, 229 on tree, -464.92332 best solution, best possible -507.16847 (4.84 seconds)
Cbc0010I After 800 nodes, 255 on tree, -464.92332 best solution, best possible -505.94315 (5.20 seconds)
Cbc0010I After 900 nodes, 271 on tree, -464.92332 best solution, best possible -505.64323 (5.55 seconds)
Optimality Based BT: 10 improved bounds
Cbc0010I After 1000 nodes, 312 on tree, -464.92332 best solution, best possible -505.19917 (6.07 seconds)
Couenne: new cutoff value -4.6826892606e+02 (6.52791 seconds)
Cbc0004I Integer solution of -468.26888 found after 30734 iterations and 1070 nodes (6.32 seconds)
Optimality Based BT: 10 improved bounds
Cbc0010I After 1100 nodes, 266 on tree, -468.26888 best solution, best possible -504.9794 (6.76 seconds)
Cbc0010I After 1200 nodes, 316 on tree, -468.26888 best solution, best possible -504.9794 (7.18 seconds)
Couenne: new cutoff value -4.7630767211e+02 (7.65461 seconds)
Cbc0004I Integer solution of -476.30767 found after 34785 iterations and 1279 nodes (7.45 seconds)
Cbc0010I After 1300 nodes, 215 on tree, -476.30767 best solution, best possible -504.93971 (7.52 seconds)
Cbc0010I After 1400 nodes, 236 on tree, -476.30767 best solution, best possible -504.84464 (7.92 seconds)
Cbc0010I After 1500 nodes, 249 on tree, -476.30767 best solution, best possible -503.72522 (8.26 seconds)
Cbc0010I After 1600 nodes, 268 on tree, -476.30767 best solution, best possible -503.04462 (8.62 seconds)
Cbc0010I After 1700 nodes, 270 on tree, -476.30767 best solution, best possible -502.16752 (8.98 seconds)
Cbc0010I After 1800 nodes, 271 on tree, -476.30767 best solution, best possible -501.28029 (9.37 seconds)
Cbc0010I After 1900 nodes, 271 on tree, -476.30767 best solution, best possible -501.12583 (9.70 seconds)
Cbc0010I After 2000 nodes, 274 on tree, -476.30767 best solution, best possible -500.95696 (10.07 seconds)
Optimality Based BT: 10 improved bounds
Cbc0010I After 2100 nodes, 277 on tree, -476.30767 best solution, best possible -500.7302 (10.61 seconds)
Cbc0010I After 2200 nodes, 278 on tree, -476.30767 best solution, best possible -499.60026 (10.93 seconds)
Cbc0010I After 2300 nodes, 279 on tree, -476.30767 best solution, best possible -498.2413 (11.25 seconds)
Cbc0010I After 2400 nodes, 285 on tree, -476.30767 best solution, best possible -498.13406 (11.74 seconds)
Cbc0010I After 2500 nodes, 282 on tree, -476.30767 best solution, best possible -497.04057 (12.08 seconds)
Cbc0010I After 2600 nodes, 281 on tree, -476.30767 best solution, best possible -494.55105 (12.41 seconds)
Cbc0010I After 2700 nodes, 279 on tree, -476.30767 best solution, best possible -491.62687 (12.74 seconds)
Cbc0010I After 2800 nodes, 271 on tree, -476.30767 best solution, best possible -488.1716 (13.12 seconds)
Cbc0010I After 2900 nodes, 259 on tree, -476.30767 best solution, best possible -486.3535 (13.43 seconds)
Cbc0010I After 3000 nodes, 257 on tree, -476.30767 best solution, best possible -485.64137 (13.79 seconds)
Cbc0010I After 3100 nodes, 248 on tree, -476.30767 best solution, best possible -485.10313 (14.10 seconds)
Cbc0010I After 3200 nodes, 238 on tree, -476.30767 best solution, best possible -484.0315 (14.42 seconds)
Cbc0010I After 3300 nodes, 227 on tree, -476.30767 best solution, best possible -482.95486 (14.73 seconds)
Optimality Based BT: 12 improved bounds
Cbc0010I After 3400 nodes, 225 on tree, -476.30767 best solution, best possible -482.00846 (15.14 seconds)
Cbc0010I After 3500 nodes, 220 on tree, -476.30767 best solution, best possible -481.04022 (15.49 seconds)
Cbc0010I After 3600 nodes, 204 on tree, -476.30767 best solution, best possible -480.42665 (15.78 seconds)
Cbc0010I After 3700 nodes, 195 on tree, -476.30767 best solution, best possible -480.12972 (16.06 seconds)
Cbc0010I After 3800 nodes, 199 on tree, -476.30767 best solution, best possible -479.62991 (16.42 seconds)
Cbc0010I After 3900 nodes, 188 on tree, -476.30767 best solution, best possible -479.28408 (16.74 seconds)
Cbc0010I After 4000 nodes, 176 on tree, -476.30767 best solution, best possible -478.79449 (17.05 seconds)
Cbc0010I After 4100 nodes, 160 on tree, -476.30767 best solution, best possible -478.45059 (17.37 seconds)
Cbc0010I After 4200 nodes, 165 on tree, -476.30767 best solution, best possible -478.17386 (17.78 seconds)
Cbc0010I After 4300 nodes, 163 on tree, -476.30767 best solution, best possible -477.87807 (18.15 seconds)
Cbc0010I After 4400 nodes, 162 on tree, -476.30767 best solution, best possible -477.57395 (18.56 seconds)
Cbc0010I After 4500 nodes, 164 on tree, -476.30767 best solution, best possible -477.38415 (18.97 seconds)
Cbc0010I After 4600 nodes, 164 on tree, -476.30767 best solution, best possible -477.19405 (19.35 seconds)
Couenne: new cutoff value -4.7630779861e+02 (19.9115 seconds)
Cbc0004I Integer solution of -476.30777 found after 87781 iterations and 4676 nodes (19.70 seconds)
Cbc0010I After 4700 nodes, 179 on tree, -476.30777 best solution, best possible -477.13781 (19.79 seconds)
Cbc0010I After 4800 nodes, 163 on tree, -476.30777 best solution, best possible -476.87496 (20.18 seconds)
Cbc0010I After 4900 nodes, 162 on tree, -476.30777 best solution, best possible -476.73777 (20.61 seconds)
Cbc0010I After 5000 nodes, 172 on tree, -476.30777 best solution, best possible -476.69376 (21.05 seconds)
Cbc0010I After 5100 nodes, 173 on tree, -476.30777 best solution, best possible -476.60868 (21.52 seconds)
Cbc0010I After 5200 nodes, 168 on tree, -476.30777 best solution, best possible -476.53816 (21.96 seconds)
Cbc0010I After 5300 nodes, 167 on tree, -476.30777 best solution, best possible -476.49656 (22.45 seconds)
Cbc0010I After 5400 nodes, 184 on tree, -476.30777 best solution, best possible -476.47515 (22.95 seconds)
Cbc0010I After 5500 nodes, 197 on tree, -476.30777 best solution, best possible -476.46078 (23.42 seconds)
Cbc0010I After 5600 nodes, 208 on tree, -476.30777 best solution, best possible -476.44486 (23.87 seconds)
Couenne: new cutoff value -4.7630825867e+02 (24.5298 seconds)
Cbc0004I Integer solution of -476.30826 found after 98670 iterations and 5693 nodes (24.32 seconds)
Cbc0010I After 5700 nodes, 216 on tree, -476.30826 best solution, best possible -476.43722 (24.36 seconds)
Cbc0010I After 5800 nodes, 237 on tree, -476.30826 best solution, best possible -476.42811 (24.84 seconds)
Cbc0010I After 5900 nodes, 239 on tree, -476.30826 best solution, best possible -476.40617 (25.30 seconds)
Cbc0010I After 6000 nodes, 244 on tree, -476.30826 best solution, best possible -476.39913 (25.77 seconds)
Cbc0010I After 6100 nodes, 246 on tree, -476.30826 best solution, best possible -476.39061 (26.24 seconds)
Cbc0010I After 6200 nodes, 257 on tree, -476.30826 best solution, best possible -476.38902 (26.70 seconds)
Cbc0010I After 6300 nodes, 278 on tree, -476.30826 best solution, best possible -476.38551 (27.18 seconds)
Cbc0010I After 6400 nodes, 290 on tree, -476.30826 best solution, best possible -476.38205 (27.67 seconds)
Cbc0010I After 6500 nodes, 289 on tree, -476.30826 best solution, best possible -476.37713 (28.12 seconds)
Cbc0010I After 6600 nodes, 296 on tree, -476.30826 best solution, best possible -476.37304 (28.59 seconds)
Cbc0010I After 6700 nodes, 293 on tree, -476.30826 best solution, best possible -476.3665 (29.04 seconds)
Cbc0010I After 6800 nodes, 302 on tree, -476.30826 best solution, best possible -476.36367 (29.51 seconds)
Cbc0010I After 6900 nodes, 301 on tree, -476.30826 best solution, best possible -476.35753 (29.97 seconds)
Cbc0010I After 7000 nodes, 290 on tree, -476.30826 best solution, best possible -476.35142 (30.40 seconds)
Cbc0010I After 7100 nodes, 282 on tree, -476.30826 best solution, best possible -476.34447 (30.85 seconds)
Cbc0010I After 7200 nodes, 282 on tree, -476.30826 best solution, best possible -476.34085 (31.31 seconds)
Cbc0010I After 7300 nodes, 290 on tree, -476.30826 best solution, best possible -476.33845 (31.80 seconds)
Cbc0010I After 7400 nodes, 294 on tree, -476.30826 best solution, best possible -476.33658 (32.27 seconds)
Cbc0010I After 7500 nodes, 293 on tree, -476.30826 best solution, best possible -476.33303 (32.73 seconds)
Cbc0010I After 7600 nodes, 294 on tree, -476.30826 best solution, best possible -476.33133 (33.20 seconds)
Cbc0010I After 7700 nodes, 290 on tree, -476.30826 best solution, best possible -476.32844 (33.66 seconds)
Cbc0010I After 7800 nodes, 301 on tree, -476.30826 best solution, best possible -476.32722 (34.12 seconds)
Cbc0010I After 7900 nodes, 305 on tree, -476.30826 best solution, best possible -476.3253 (34.58 seconds)
Cbc0010I After 8000 nodes, 298 on tree, -476.30826 best solution, best possible -476.32338 (35.01 seconds)
Cbc0010I After 8100 nodes, 301 on tree, -476.30826 best solution, best possible -476.32209 (35.49 seconds)
Cbc0010I After 8200 nodes, 294 on tree, -476.30826 best solution, best possible -476.32047 (35.96 seconds)
Cbc0010I After 8300 nodes, 300 on tree, -476.30826 best solution, best possible -476.31884 (36.47 seconds)
Cbc0010I After 8400 nodes, 310 on tree, -476.30826 best solution, best possible -476.31796 (36.95 seconds)
Cbc0010I After 8500 nodes, 325 on tree, -476.30826 best solution, best possible -476.31729 (37.43 seconds)
Cbc0010I After 8600 nodes, 323 on tree, -476.30826 best solution, best possible -476.31661 (37.91 seconds)
Cbc0010I After 8700 nodes, 324 on tree, -476.30826 best solution, best possible -476.31606 (38.39 seconds)
Cbc0010I After 8800 nodes, 321 on tree, -476.30826 best solution, best possible -476.31496 (38.85 seconds)
Cbc0010I After 8900 nodes, 318 on tree, -476.30826 best solution, best possible -476.3145 (39.28 seconds)
Cbc0010I After 9000 nodes, 311 on tree, -476.30826 best solution, best possible -476.31424 (39.74 seconds)
Cbc0010I After 9100 nodes, 303 on tree, -476.30826 best solution, best possible -476.3137 (40.21 seconds)
Cbc0010I After 9200 nodes, 304 on tree, -476.30826 best solution, best possible -476.31304 (40.68 seconds)
Cbc0010I After 9300 nodes, 298 on tree, -476.30826 best solution, best possible -476.31256 (41.13 seconds)
Cbc0010I After 9400 nodes, 299 on tree, -476.30826 best solution, best possible -476.31222 (41.58 seconds)
Cbc0010I After 9500 nodes, 287 on tree, -476.30826 best solution, best possible -476.31163 (42.04 seconds)
Cbc0010I After 9600 nodes, 279 on tree, -476.30826 best solution, best possible -476.31121 (42.51 seconds)
Cbc0010I After 9700 nodes, 265 on tree, -476.30826 best solution, best possible -476.31072 (42.95 seconds)
Cbc0010I After 9800 nodes, 252 on tree, -476.30826 best solution, best possible -476.31031 (43.39 seconds)
Cbc0010I After 9900 nodes, 241 on tree, -476.30826 best solution, best possible -476.31008 (43.84 seconds)
Cbc0010I After 10000 nodes, 226 on tree, -476.30826 best solution, best possible -476.30988 (44.29 seconds)
Cbc0010I After 10100 nodes, 213 on tree, -476.30826 best solution, best possible -476.30961 (44.76 seconds)
Cbc0010I After 10200 nodes, 192 on tree, -476.30826 best solution, best possible -476.30938 (45.19 seconds)
Cbc0010I After 10300 nodes, 188 on tree, -476.30826 best solution, best possible -476.30921 (45.62 seconds)
Cbc0010I After 10400 nodes, 180 on tree, -476.30826 best solution, best possible -476.30899 (46.06 seconds)
Cbc0010I After 10500 nodes, 175 on tree, -476.30826 best solution, best possible -476.30887 (46.49 seconds)
Cbc0010I After 10600 nodes, 161 on tree, -476.30826 best solution, best possible -476.30876 (46.87 seconds)
Cbc0010I After 10700 nodes, 143 on tree, -476.30826 best solution, best possible -476.30866 (47.30 seconds)
Cbc0010I After 10800 nodes, 126 on tree, -476.30826 best solution, best possible -476.30859 (47.65 seconds)
Cbc0010I After 10900 nodes, 104 on tree, -476.30826 best solution, best possible -476.30852 (48.05 seconds)
Cbc0010I After 11000 nodes, 84 on tree, -476.30826 best solution, best possible -476.30844 (48.46 seconds)
Cbc0010I After 11100 nodes, 74 on tree, -476.30826 best solution, best possible -476.3084 (48.87 seconds)
Cbc0010I After 11200 nodes, 50 on tree, -476.30826 best solution, best possible -476.30834 (49.23 seconds)
Cbc0010I After 11300 nodes, 33 on tree, -476.30826 best solution, best possible -476.3083 (49.57 seconds)
Cbc0001I Search completed - best objective -476.3082586711991, took 128111 iterations and 11381 nodes (49.77 seconds)
Cbc0035I Maximum depth 124, 615 variables fixed on reduced cost

 	"Finished"

Linearization cuts added at root node:        190
Linearization cuts added in total:            190  (separation time: 0.000589s)
Total solve time:                         49.8404s (49.8404s in branch-and-bound)
Lower bound:                             -476.308
Upper bound:                             -476.308  (gap: 0.00%)
Branch-and-bound nodes:                     11381
Stats: /tmp/jl_huyDkC/model.nl   30 [var]   10 [int]   31 [con]   72 [aux]    190 [root]      190 [tot] 0.000589 [sep]  49.8404 [time]  49.8406 [bb]        -4.763083e+02 [lower]        -4.763083e+02 [upper]   11381 [nodes]
Performance of                           FBBT:	    1.40334s,    16917 runs. fix: 0.00282128 shrnk:    0.93574 ubd:          0 2ubd:    0.99588 infeas:         50
Performance of                           OBBT:	   0.347836s,       13 runs. fix:          0 shrnk:    1.66076 ubd:          0 2ubd:          1 infeas:          0
primal_bound = -476.308258671199, dual_bound = 0.0, gap = 100.0, time = 54.42
